87 300 120 127 124 149 118 122 136 147 144 144 118 147 148 120 120 113 120 108 126 133 101 129 109 116 118 139 142 116 140 144 123 134 121 121 107 113 117 143 109 111 110 101 107 107 122 102 146 116 110 146 149 111 124 107 128 143 121 119 108 110 137 105 144 107 100 125 146 118 117 129 129 127 131 110 109 102 137 129 143 147 124 116 133 148 148 110 114 